Solver command line: []

Read LP format model from file C:\Users\wlhlm\AppData\Local\Temp\tmp_qzsfg3l.pyomo.lp
Reading time = 0.04 seconds
objective: 18325 rows, 16631 columns, 41491 nonzeros
Set parameter TimeLimit to value 5000
Set parameter MIPGap to value 0.08
Gurobi Optimizer version 12.0.1 build v12.0.1rc0 (win64 - Windows 11.0 (26100.2))

CPU model: Intel(R) Core(TM) Ultra 7 258V, instruction set [SSE2|AVX|AVX2]
Thread count: 8 physical cores, 8 logical processors, using up to 8 threads

Non-default parameters:
TimeLimit  5000
MIPGap  0.08

Optimize a model with 18325 rows, 16631 columns and 41491 nonzeros
Model fingerprint: 0x2e5f6d5e
Model has 167 quadratic constraints
Variable types: 14280 continuous, 2351 integer (2016 binary)
Coefficient statistics:
  Matrix range     [8e-03, 2e+02]
  QMatrix range    [1e+00, 1e+00]
  Objective range  [4e+01, 3e+02]
  Bounds range     [1e+00, 3e+00]
  RHS range        [2e-03, 1e+04]
Presolve removed 15959 rows and 13756 columns
Presolve time: 0.08s
Presolved: 2366 rows, 2875 columns, 8098 nonzeros
Variable types: 2220 continuous, 655 integer (655 binary)

Root relaxation: objective 3.871027e+06, 1479 iterations, 0.01 seconds (0.02 work units)

    Nodes    |    Current Node    |     Objective Bounds      |     Work
 Expl Unexpl |  Obj  Depth IntInf | Incumbent    BestBd   Gap | It/Node Time

     0     0 3871026.57    0   21          - 3871026.57      -     -    0s
     0     0 3872071.43    0   19          - 3872071.43      -     -    0s
     0     0 3872071.43    0   21          - 3872071.43      -     -    0s
     0     0 3872558.25    0   11          - 3872558.25      -     -    0s
     0     0 3872558.25    0   15          - 3872558.25      -     -    0s
     0     0 3872558.25    0   15          - 3872558.25      -     -    0s
     0     0 3872629.32    0   14          - 3872629.32      -     -    0s
H    0     0                    3874736.3507 3872637.87  0.05%     -    0s
     0     0 3872637.87    0   13 3874736.35 3872637.87  0.05%     -    0s

Cutting planes:
  Learned: 3
  Gomory: 18
  MIR: 47
  Flow cover: 26
  RLT: 4
  Relax-and-lift: 2

Explored 1 nodes (1739 simplex iterations) in 0.22 seconds (0.20 work units)
Thread count was 8 (of 8 available processors)

Solution count 1: 3.87474e+06 

Optimal solution found (tolerance 8.00e-02)
Best objective 3.874736350702e+06, best bound 3.872637870537e+06, gap 0.0542%

